c Arquivo convertido de bcsstk19.mtx
p edge 817 3018
e 1 2
e 1 3
e 1 4
e 1 5
e 1 6
e 1 163
e 1 164
e 1 170
e 1 171
e 2 3
e 2 4
e 2 5
e 2 6
e 2 163
e 2 164
e 2 170
e 2 171
e 3 4
e 3 5
e 3 6
e 3 163
e 3 164
e 4 5
e 4 6
e 4 7
e 4 8
e 4 9
e 4 176
e 4 177
e 5 7
e 5 8
e 5 9
e 5 176
e 5 177
e 6 7
e 6 8
e 6 9
e 7 8
e 7 9
e 7 10
e 7 11
e 7 12
e 7 182
e 7 183
e 8 9
e 8 10
e 8 11
e 8 12
e 8 182
e 8 183
e 9 10
e 9 11
e 9 12
e 10 11
e 10 12
e 10 13
e 10 14
e 10 15
e 10 188
e 10 189
e 11 12
e 11 13
e 11 14
e 11 15
e 11 188
e 11 189
e 12 13
e 12 14
e 12 15
e 13 14
e 13 15
e 13 16
e 13 17
e 13 18
e 13 194
e 13 195
e 14 15
e 14 16
e 14 17
e 14 18
e 14 194
e 14 195
e 15 16
e 15 17
e 15 18
e 16 17
e 16 18
e 16 19
e 16 20
e 16 21
e 16 200
e 16 201
e 17 18
e 17 19
e 17 20
e 17 21
e 17 200
e 17 201
e 18 19
e 18 20
e 18 21
e 19 20
e 19 21
e 19 22
e 19 23
e 19 24
e 19 206
e 19 207
e 20 21
e 20 22
e 20 23
e 20 24
e 20 206
e 20 207
e 21 22
e 21 23
e 21 24
e 22 23
e 22 24
e 22 25
e 22 26
e 22 27
e 22 212
e 22 213
e 23 24
e 23 25
e 23 26
e 23 27
e 23 212
e 23 213
e 24 25
e 24 26
e 24 27
e 25 26
e 25 27
e 25 28
e 25 29
e 25 30
e 25 218
e 25 219
e 26 27
e 26 28
e 26 29
e 26 30
e 26 218
e 26 219
e 27 28
e 27 29
e 27 30
e 28 29
e 28 30
e 28 31
e 28 32
e 28 33
e 28 224
e 28 225
e 29 30
e 29 31
e 29 32
e 29 33
e 29 224
e 29 225
e 30 31
e 30 32
e 30 33
e 31 32
e 31 33
e 31 34
e 31 35
e 31 36
e 31 230
e 31 231
e 32 34
e 32 35
e 32 36
e 32 230
e 32 231
e 33 34
e 33 35
e 33 36
e 34 35
e 34 36
e 34 37
e 34 38
e 34 39
e 34 236
e 34 237
e 35 37
e 35 38
e 35 39
e 35 236
e 35 237
e 36 37
e 36 38
e 36 39
e 37 38
e 37 39
e 37 40
e 37 41
e 37 42
e 37 242
e 37 243
e 38 39
e 38 40
e 38 41
e 38 42
e 38 242
e 38 243
e 39 40
e 39 41
e 39 42
e 40 41
e 40 42
e 40 43
e 40 44
e 40 45
e 40 248
e 40 249
e 41 42
e 41 43
e 41 44
e 41 45
e 41 248
e 41 249
e 42 43
e 42 44
e 42 45
e 43 44
e 43 45
e 43 46
e 43 47
e 43 48
e 43 254
e 43 255
e 44 46
e 44 47
e 44 48
e 44 254
e 44 255
e 45 46
e 45 47
e 45 48
e 46 47
e 46 48
e 46 49
e 46 50
e 46 51
e 46 260
e 46 261
e 47 49
e 47 50
e 47 51
e 47 260
e 47 261
e 48 49
e 48 50
e 48 51
e 49 50
e 49 51
e 49 52
e 49 53
e 49 54
e 49 266
e 49 267
e 50 51
e 50 52
e 50 53
e 50 54
e 50 266
e 50 267
e 51 52
e 51 53
e 51 54
e 52 53
e 52 54
e 52 55
e 52 56
e 52 57
e 52 272
e 52 273
e 53 54
e 53 55
e 53 56
e 53 57
e 53 272
e 53 273
e 54 55
e 54 56
e 54 57
e 55 56
e 55 57
e 55 58
e 55 59
e 55 60
e 55 278
e 55 279
e 56 57
e 56 58
e 56 59
e 56 60
e 56 278
e 56 279
e 57 58
e 57 59
e 57 60
e 58 59
e 58 60
e 58 61
e 58 62
e 58 63
e 58 284
e 58 285
e 59 60
e 59 61
e 59 62
e 59 63
e 59 284
e 59 285
e 60 61
e 60 62
e 60 63
e 61 62
e 61 63
e 61 64
e 61 65
e 61 66
e 61 290
e 61 291
e 62 63
e 62 64
e 62 65
e 62 66
e 62 290
e 62 291
e 63 64
e 63 65
e 63 66
e 64 65
e 64 66
e 64 67
e 64 68
e 64 69
e 64 296
e 64 297
e 65 66
e 65 67
e 65 68
e 65 69
e 65 296
e 65 297
e 66 67
e 66 68
e 66 69
e 67 68
e 67 69
e 67 70
e 67 71
e 67 72
e 67 302
e 67 303
e 68 69
e 68 70
e 68 71
e 68 72
e 68 302
e 68 303
e 69 70
e 69 71
e 69 72
e 70 71
e 70 72
e 70 73
e 70 74
e 70 75
e 70 308
e 70 309
e 71 72
e 71 73
e 71 74
e 71 75
e 71 308
e 71 309
e 72 73
e 72 74
e 72 75
e 73 74
e 73 75
e 73 76
e 73 77
e 73 78
e 73 314
e 73 315
e 74 75
e 74 76
e 74 77
e 74 78
e 74 314
e 74 315
e 75 76
e 75 77
e 75 78
e 76 77
e 76 78
e 76 79
e 76 80
e 76 81
e 76 320
e 76 321
e 77 78
e 77 79
e 77 80
e 77 81
e 77 320
e 77 321
e 78 79
e 78 80
e 78 81
e 79 80
e 79 81
e 79 326
e 79 327
e 79 491
e 79 492
e 79 493
e 80 81
e 80 326
e 80 327
e 80 491
e 80 492
e 80 493
e 81 491
e 81 492
e 81 493
e 82 83
e 82 84
e 82 85
e 82 86
e 82 87
e 82 165
e 82 166
e 82 332
e 82 333
e 83 84
e 83 85
e 83 86
e 83 87
e 83 165
e 83 166
e 83 332
e 83 333
e 84 85
e 84 86
e 84 87
e 84 165
e 84 166
e 85 86
e 85 87
e 85 88
e 85 89
e 85 90
e 85 338
e 85 339
e 86 87
e 86 88
e 86 89
e 86 90
e 86 338
e 86 339
e 87 88
e 87 89
e 87 90
e 88 89
e 88 90
e 88 91
e 88 92
e 88 93
e 88 344
e 88 345
e 89 90
e 89 91
e 89 92
e 89 93
e 89 344
e 89 345
e 90 91
e 90 92
e 90 93
e 91 92
e 91 93
e 91 94
e 91 95
e 91 96
e 91 350
e 91 351
e 92 93
e 92 94
e 92 95
e 92 96
e 92 350
e 92 351
e 93 94
e 93 95
e 93 96
e 94 95
e 94 96
e 94 97
e 94 98
e 94 99
e 94 356
e 94 357
e 95 96
e 95 97
e 95 98
e 95 99
e 95 356
e 95 357
e 96 97
e 96 98
e 96 99
e 97 98
e 97 99
e 97 100
e 97 101
e 97 102
e 97 362
e 97 363
e 98 99
e 98 100
e 98 101
e 98 102
e 98 362
e 98 363
e 99 100
e 99 101
e 99 102
e 100 101
e 100 102
e 100 103
e 100 104
e 100 105
e 100 368
e 100 369
e 101 102
e 101 103
e 101 104
e 101 105
e 101 368
e 101 369
e 102 103
e 102 104
e 102 105
e 103 104
e 103 105
e 103 106
e 103 107
e 103 108
e 103 374
e 103 375
e 104 105
e 104 106
e 104 107
e 104 108
e 104 374
e 104 375
e 105 106
e 105 107
e 105 108
e 106 107
e 106 108
e 106 109
e 106 110
e 106 111
e 106 380
e 106 381
e 107 108
e 107 109
e 107 110
e 107 111
e 107 380
e 107 381
e 108 109
e 108 110
e 108 111
e 109 110
e 109 111
e 109 112
e 109 113
e 109 114
e 109 386
e 109 387
e 110 111
e 110 112
e 110 113
e 110 114
e 110 386
e 110 387
e 111 112
e 111 113
e 111 114
e 112 113
e 112 114
e 112 115
e 112 116
e 112 117
e 112 392
e 112 393
e 113 114
e 113 115
e 113 116
e 113 117
e 113 392
e 113 393
e 114 115
e 114 116
e 114 117
e 115 116
e 115 117
e 115 118
e 115 119
e 115 120
e 115 398
e 115 399
e 116 117
e 116 118
e 116 119
e 116 120
e 116 398
e 116 399
e 117 118
e 117 119
e 117 120
e 118 119
e 118 120
e 118 121
e 118 122
e 118 123
e 118 404
e 118 405
e 119 120
e 119 121
e 119 122
e 119 123
e 119 404
e 119 405
e 120 121
e 120 122
e 120 123
e 121 122
e 121 123
e 121 124
e 121 125
e 121 126
e 121 410
e 121 411
e 122 123
e 122 124
e 122 125
e 122 126
e 122 410
e 122 411
e 123 124
e 123 125
e 123 126
e 124 125
e 124 126
e 124 127
e 124 128
e 124 129
e 124 416
e 124 417
e 125 126
e 125 127
e 125 128
e 125 129
e 125 416
e 125 417
e 126 127
e 126 128
e 126 129
e 127 128
e 127 129
e 127 130
e 127 131
e 127 132
e 127 422
e 127 423
e 128 129
e 128 130
e 128 131
e 128 132
e 128 422
e 128 423
e 129 130
e 129 131
e 129 132
e 130 131
e 130 132
e 130 133
e 130 134
e 130 135
e 130 428
e 130 429
e 131 132
e 131 133
e 131 134
e 131 135
e 131 428
e 131 429
e 132 133
e 132 134
e 132 135
e 133 134
e 133 135
e 133 136
e 133 137
e 133 138
e 133 434
e 133 435
e 134 135
e 134 136
e 134 137
e 134 138
e 134 434
e 134 435
e 135 136
e 135 137
e 135 138
e 136 137
e 136 138
e 136 139
e 136 140
e 136 141
e 136 440
e 136 441
e 137 138
e 137 139
e 137 140
e 137 141
e 137 440
e 137 441
e 138 139
e 138 140
e 138 141
e 139 140
e 139 141
e 139 142
e 139 143
e 139 144
e 139 446
e 139 447
e 140 141
e 140 142
e 140 143
e 140 144
e 140 446
e 140 447
e 141 142
e 141 143
e 141 144
e 142 143
e 142 144
e 142 145
e 142 146
e 142 147
e 142 452
e 142 453
e 143 144
e 143 145
e 143 146
e 143 147
e 143 452
e 143 453
e 144 145
e 144 146
e 144 147
e 145 146
e 145 147
e 145 148
e 145 149
e 145 150
e 145 458
e 145 459
e 146 147
e 146 148
e 146 149
e 146 150
e 146 458
e 146 459
e 147 148
e 147 149
e 147 150
e 148 149
e 148 150
e 148 151
e 148 152
e 148 153
e 148 464
e 148 465
e 149 150
e 149 151
e 149 152
e 149 153
e 149 464
e 149 465
e 150 151
e 150 152
e 150 153
e 151 152
e 151 153
e 151 154
e 151 155
e 151 156
e 151 470
e 151 471
e 152 153
e 152 154
e 152 155
e 152 156
e 152 470
e 152 471
e 153 154
e 153 155
e 153 156
e 154 155
e 154 156
e 154 157
e 154 158
e 154 159
e 154 476
e 154 477
e 155 156
e 155 157
e 155 158
e 155 159
e 155 476
e 155 477
e 156 157
e 156 158
e 156 159
e 157 158
e 157 159
e 157 160
e 157 161
e 157 162
e 157 482
e 157 483
e 158 159
e 158 160
e 158 161
e 158 162
e 158 482
e 158 483
e 159 160
e 159 161
e 159 162
e 160 161
e 160 162
e 160 488
e 160 489
e 160 725
e 160 726
e 160 727
e 161 162
e 161 488
e 161 489
e 161 725
e 161 726
e 161 727
e 162 725
e 162 726
e 162 727
e 163 164
e 163 167
e 163 168
e 165 166
e 165 329
e 165 330
e 167 168
e 167 169
e 167 170
e 167 172
e 167 605
e 167 606
e 168 171
e 168 605
e 168 606
e 169 170
e 169 172
e 170 171
e 170 173
e 170 175
e 171 174
e 172 173
e 172 175
e 173 174
e 173 175
e 173 176
e 173 178
e 173 602
e 173 603
e 174 177
e 174 602
e 174 603
e 175 176
e 175 178
e 176 177
e 176 178
e 176 179
e 176 181
e 177 180
e 178 179
e 178 181
e 179 180
e 179 181
e 179 182
e 179 184
e 179 599
e 179 600
e 180 183
e 180 599
e 180 600
e 181 182
e 181 184
e 182 183
e 182 184
e 182 185
e 182 187
e 182 596
e 182 597
e 183 186
e 183 596
e 183 597
e 184 185
e 184 187
e 185 186
e 185 187
e 185 188
e 185 190
e 185 593
e 185 594
e 186 189
e 186 593
e 186 594
e 187 188
e 187 190
e 188 189
e 188 190
e 188 191
e 188 193
e 189 192
e 190 191
e 190 193
e 191 192
e 191 193
e 191 194
e 191 196
e 191 590
e 191 591
e 192 195
e 192 590
e 192 591
e 193 194
e 193 196
e 194 195
e 194 196
e 194 197
e 194 199
e 195 198
e 196 197
e 196 199
e 197 198
e 197 199
e 197 200
e 197 202
e 197 587
e 197 588
e 198 201
e 198 587
e 198 588
e 199 200
e 199 202
e 200 201
e 200 202
e 200 203
e 200 205
e 201 204
e 202 203
e 202 205
e 203 204
e 203 205
e 203 206
e 203 208
e 203 584
e 203 585
e 204 207
e 204 584
e 204 585
e 205 206
e 205 208
e 206 207
e 206 208
e 206 209
e 206 211
e 206 581
e 206 582
e 207 210
e 207 581
e 207 582
e 208 209
e 208 211
e 209 210
e 209 211
e 209 212
e 209 214
e 209 578
e 209 579
e 210 213
e 210 578
e 210 579
e 211 212
e 211 214
e 212 213
e 212 214
e 212 215
e 212 217
e 213 216
e 214 215
e 214 217
e 215 216
e 215 217
e 215 218
e 215 220
e 215 575
e 215 576
e 216 219
e 216 575
e 216 576
e 217 218
e 217 220
e 218 219
e 218 220
e 218 221
e 218 223
e 219 222
e 220 221
e 220 223
e 221 222
e 221 223
e 221 224
e 221 226
e 221 572
e 221 573
e 222 225
e 222 572
e 222 573
e 223 224
e 223 226
e 224 225
e 224 226
e 224 227
e 224 229
e 225 228
e 226 227
e 226 229
e 227 228
e 227 229
e 227 230
e 227 232
e 227 569
e 227 570
e 228 231
e 228 569
e 228 570
e 229 230
e 229 232
e 230 231
e 230 232
e 230 233
e 230 235
e 230 566
e 230 567
e 231 234
e 231 566
e 231 567
e 232 233
e 232 235
e 233 234
e 233 235
e 233 236
e 233 238
e 233 563
e 233 564
e 234 237
e 234 563
e 234 564
e 235 236
e 235 238
e 236 237
e 236 238
e 236 239
e 236 241
e 237 240
e 238 239
e 238 241
e 239 240
e 239 241
e 239 242
e 239 244
e 239 560
e 239 561
e 240 243
e 240 560
e 240 561
e 241 242
e 241 244
e 242 243
e 242 244
e 242 245
e 242 247
e 243 246
e 244 245
e 244 247
e 245 246
e 245 247
e 245 248
e 245 250
e 245 557
e 245 558
e 246 249
e 246 557
e 246 558
e 247 248
e 247 250
e 248 249
e 248 250
e 248 251
e 248 253
e 249 252
e 250 251
e 250 253
e 251 252
e 251 253
e 251 254
e 251 256
e 251 554
e 251 555
e 252 255
e 252 554
e 252 555
e 253 254
e 253 256
e 254 255
e 254 256
e 254 257
e 254 259
e 254 551
e 254 552
e 255 258
e 255 551
e 255 552
e 256 257
e 256 259
e 257 258
e 257 259
e 257 260
e 257 262
e 257 548
e 257 549
e 258 261
e 258 548
e 258 549
e 259 260
e 259 262
e 260 261
e 260 262
e 260 263
e 260 265
e 261 264
e 262 263
e 262 265
e 263 264
e 263 265
e 263 266
e 263 268
e 263 545
e 263 546
e 264 267
e 264 545
e 264 546
e 265 266
e 265 268
e 266 267
e 266 269
e 266 271
e 267 270
e 268 269
e 268 271
e 269 270
e 269 271
e 269 272
e 269 274
e 269 542
e 269 543
e 270 273
e 270 542
e 270 543
e 271 272
e 271 274
e 272 273
e 272 274
e 272 275
e 272 277
e 273 276
e 274 275
e 274 277
e 275 276
e 275 277
e 275 278
e 275 280
e 275 539
e 275 540
e 276 279
e 276 539
e 276 540
e 277 278
e 277 280
e 278 279
e 278 280
e 278 281
e 278 283
e 278 536
e 278 537
e 279 282
e 279 536
e 279 537
e 280 281
e 280 283
e 281 282
e 281 283
e 281 284
e 281 286
e 281 533
e 281 534
e 282 285
e 282 533
e 282 534
e 283 284
e 283 286
e 284 285
e 284 286
e 284 287
e 284 289
e 285 288
e 286 287
e 286 289
e 287 288
e 287 289
e 287 290
e 287 292
e 287 530
e 287 531
e 288 291
e 288 530
e 288 531
e 289 290
e 289 292
e 290 291
e 290 292
e 290 293
e 290 295
e 291 294
e 292 293
e 292 295
e 293 294
e 293 295
e 293 296
e 293 298
e 293 527
e 293 528
e 294 297
e 294 527
e 294 528
e 295 296
e 295 298
e 296 297
e 296 298
e 296 299
e 296 301
e 297 300
e 298 299
e 298 301
e 299 300
e 299 301
e 299 302
e 299 304
e 299 524
e 299 525
e 300 303
e 300 524
e 300 525
e 301 302
e 301 304
e 302 303
e 302 304
e 302 305
e 302 307
e 302 521
e 302 522
e 303 306
e 303 521
e 303 522
e 304 305
e 304 307
e 305 306
e 305 307
e 305 308
e 305 310
e 305 518
e 305 519
e 306 309
e 306 518
e 306 519
e 307 308
e 307 310
e 308 309
e 308 310
e 308 311
e 308 313
e 309 312
e 310 311
e 310 313
e 311 312
e 311 313
e 311 314
e 311 316
e 311 515
e 311 516
e 312 315
e 312 515
e 312 516
e 313 314
e 313 316
e 314 315
e 314 316
e 314 317
e 314 319
e 315 318
e 316 317
e 316 319
e 317 318
e 317 319
e 317 320
e 317 322
e 317 512
e 317 513
e 318 321
e 318 512
e 318 513
e 319 320
e 319 322
e 320 321
e 320 322
e 320 323
e 320 325
e 321 324
e 322 323
e 322 325
e 323 324
e 323 325
e 323 326
e 323 328
e 323 509
e 323 510
e 324 327
e 324 509
e 324 510
e 325 326
e 325 328
e 326 327
e 326 328
e 326 506
e 326 507
e 326 728
e 326 730
e 327 506
e 327 507
e 327 729
e 328 728
e 328 730
e 329 330
e 329 331
e 329 332
e 329 334
e 329 611
e 329 612
e 330 333
e 330 611
e 330 612
e 331 332
e 331 334
e 332 333
e 332 335
e 332 337
e 333 336
e 334 335
e 334 337
e 335 336
e 335 337
e 335 338
e 335 340
e 335 614
e 335 615
e 336 339
e 336 614
e 336 615
e 337 338
e 337 340
e 338 339
e 338 340
e 338 341
e 338 343
e 339 342
e 340 341
e 340 343
e 341 342
e 341 343
e 341 344
e 341 346
e 341 617
e 341 618
e 342 345
e 342 617
e 342 618
e 343 344
e 343 346
e 344 345
e 344 346
e 344 347
e 344 349
e 344 620
e 344 621
e 345 348
e 345 620
e 345 621
e 346 347
e 346 349
e 347 348
e 347 349
e 347 350
e 347 352
e 347 623
e 347 624
e 348 351
e 348 623
e 348 624
e 349 350
e 349 352
e 350 351
e 350 352
e 350 353
e 350 355
e 351 354
e 352 353
e 352 355
e 353 354
e 353 355
e 353 356
e 353 358
e 353 626
e 353 627
e 354 357
e 354 626
e 354 627
e 355 356
e 355 358
e 356 357
e 356 358
e 356 359
e 356 361
e 357 360
e 358 359
e 358 361
e 359 360
e 359 361
e 359 362
e 359 364
e 359 629
e 359 630
e 360 363
e 360 629
e 360 630
e 361 362
e 361 364
e 362 363
e 362 364
e 362 365
e 362 367
e 363 366
e 364 365
e 364 367
e 365 366
e 365 367
e 365 368
e 365 370
e 365 632
e 365 633
e 366 369
e 366 632
e 366 633
e 367 368
e 367 370
e 368 369
e 368 370
e 368 371
e 368 373
e 368 635
e 368 636
e 369 372
e 369 635
e 369 636
e 370 371
e 370 373
e 371 372
e 371 373
e 371 374
e 371 376
e 371 638
e 371 639
e 372 375
e 372 638
e 372 639
e 373 374
e 373 376
e 374 375
e 374 376
e 374 377
e 374 379
e 375 378
e 376 377
e 376 379
e 377 378
e 377 379
e 377 380
e 377 382
e 377 641
e 377 642
e 378 381
e 378 641
e 378 642
e 379 380
e 379 382
e 380 381
e 380 382
e 380 383
e 380 385
e 381 384
e 382 383
e 382 385
e 383 384
e 383 385
e 383 386
e 383 388
e 383 644
e 383 645
e 384 387
e 384 644
e 384 645
e 385 386
e 385 388
e 386 387
e 386 388
e 386 389
e 386 391
e 387 390
e 388 389
e 388 391
e 389 390
e 389 391
e 389 392
e 389 394
e 389 647
e 389 648
e 390 393
e 390 647
e 390 648
e 391 392
e 391 394
e 392 393
e 392 394
e 392 395
e 392 397
e 392 650
e 392 651
e 393 396
e 393 650
e 393 651
e 394 395
e 394 397
e 395 396
e 395 397
e 395 398
e 395 400
e 395 653
e 395 654
e 396 399
e 396 653
e 396 654
e 397 398
e 397 400
e 398 399
e 398 400
e 398 401
e 398 403
e 399 402
e 400 401
e 400 403
e 401 402
e 401 403
e 401 404
e 401 406
e 401 656
e 401 657
e 402 405
e 402 656
e 402 657
e 403 404
e 403 406
e 404 405
e 404 406
e 404 407
e 404 409
e 405 408
e 406 407
e 406 409
e 407 408
e 407 409
e 407 410
e 407 412
e 407 659
e 407 660
e 408 411
e 408 659
e 408 660
e 409 410
e 409 412
e 410 411
e 410 412
e 410 413
e 410 415
e 411 414
e 412 413
e 412 415
e 413 414
e 413 415
e 413 416
e 413 418
e 413 662
e 413 663
e 414 417
e 414 662
e 414 663
e 415 416
e 415 418
e 416 417
e 416 418
e 416 419
e 416 421
e 416 665
e 416 666
e 417 420
e 417 665
e 417 666
e 418 419
e 418 421
e 419 420
e 419 421
e 419 422
e 419 424
e 419 668
e 419 669
e 420 423
e 420 668
e 420 669
e 421 422
e 421 424
e 422 423
e 422 424
e 422 425
e 422 427
e 423 426
e 424 425
e 424 427
e 425 426
e 425 427
e 425 428
e 425 430
e 425 671
e 425 672
e 426 429
e 426 671
e 426 672
e 427 428
e 427 430
e 428 429
e 428 431
e 428 433
e 429 432
e 430 431
e 430 433
e 431 432
e 431 433
e 431 434
e 431 436
e 431 674
e 431 675
e 432 435
e 432 674
e 432 675
e 433 434
e 433 436
e 434 435
e 434 436
e 434 437
e 434 439
e 435 438
e 436 437
e 436 439
e 437 438
e 437 439
e 437 440
e 437 442
e 437 677
e 437 678
e 438 441
e 438 677
e 438 678
e 439 440
e 439 442
e 440 441
e 440 442
e 440 443
e 440 445
e 440 680
e 440 681
e 441 444
e 441 680
e 441 681
e 442 443
e 442 445
e 443 444
e 443 445
e 443 446
e 443 448
e 443 683
e 443 684
e 444 447
e 444 683
e 444 684
e 445 446
e 445 448
e 446 447
e 446 448
e 446 449
e 446 451
e 447 450
e 448 449
e 448 451
e 449 450
e 449 451
e 449 452
e 449 454
e 449 686
e 449 687
e 450 453
e 450 686
e 450 687
e 451 452
e 451 454
e 452 453
e 452 454
e 452 455
e 452 457
e 453 456
e 454 455
e 454 457
e 455 456
e 455 457
e 455 458
e 455 460
e 455 689
e 455 690
e 456 459
e 456 689
e 456 690
e 457 458
e 457 460
e 458 459
e 458 460
e 458 461
e 458 463
e 459 462
e 460 461
e 460 463
e 461 462
e 461 463
e 461 464
e 461 466
e 461 692
e 461 693
e 462 465
e 462 692
e 462 693
e 463 464
e 463 466
e 464 465
e 464 466
e 464 467
e 464 469
e 464 695
e 464 696
e 465 468
e 465 695
e 465 696
e 466 467
e 466 469
e 467 468
e 467 469
e 467 470
e 467 472
e 467 698
e 467 699
e 468 471
e 468 698
e 468 699
e 469 470
e 469 472
e 470 471
e 470 472
e 470 473
e 470 475
e 471 474
e 472 473
e 472 475
e 473 474
e 473 475
e 473 476
e 473 478
e 473 701
e 473 702
e 474 477
e 474 701
e 474 702
e 475 476
e 475 478
e 476 477
e 476 478
e 476 479
e 476 481
e 477 480
e 478 479
e 478 481
e 479 480
e 479 481
e 479 482
e 479 484
e 479 704
e 479 705
e 480 483
e 480 704
e 480 705
e 481 482
e 481 484
e 482 483
e 482 484
e 482 485
e 482 487
e 483 486
e 484 485
e 484 487
e 485 486
e 485 487
e 485 488
e 485 490
e 485 707
e 485 708
e 486 489
e 486 707
e 486 708
e 487 488
e 487 490
e 488 489
e 488 490
e 488 710
e 488 711
e 488 773
e 488 775
e 489 710
e 489 711
e 489 774
e 490 773
e 490 775
e 491 492
e 491 493
e 491 494
e 491 495
e 491 496
e 492 493
e 492 494
e 492 495
e 492 496
e 493 494
e 493 495
e 493 496
e 494 495
e 494 496
e 494 497
e 494 498
e 494 499
e 495 496
e 495 497
e 495 498
e 495 499
e 496 497
e 496 498
e 496 499
e 497 498
e 497 499
e 497 500
e 497 501
e 497 502
e 497 743
e 497 745
e 498 499
e 498 500
e 498 501
e 498 502
e 498 744
e 499 500
e 499 501
e 499 502
e 499 743
e 499 745
e 500 501
e 500 502
e 500 503
e 500 504
e 500 505
e 501 502
e 501 503
e 501 504
e 501 505
e 502 503
e 502 504
e 502 505
e 503 504
e 503 505
e 503 506
e 503 507
e 503 508
e 504 505
e 504 506
e 504 507
e 504 508
e 505 506
e 505 507
e 505 508
e 506 507
e 506 508
e 506 509
e 506 510
e 506 511
e 507 508
e 507 509
e 507 510
e 507 511
e 508 509
e 508 510
e 508 511
e 509 510
e 509 511
e 509 512
e 509 513
e 509 514
e 510 511
e 510 512
e 510 513
e 510 514
e 511 512
e 511 513
e 511 514
e 512 513
e 512 514
e 512 515
e 512 516
e 512 517
e 513 514
e 513 515
e 513 516
e 513 517
e 514 515
e 514 516
e 514 517
e 515 516
e 515 517
e 515 518
e 515 519
e 515 520
e 516 517
e 516 518
e 516 519
e 516 520
e 517 518
e 517 519
e 517 520
e 518 519
e 518 520
e 518 521
e 518 522
e 518 523
e 519 520
e 519 521
e 519 522
e 519 523
e 520 521
e 520 522
e 520 523
e 521 522
e 521 523
e 521 524
e 521 525
e 521 526
e 522 523
e 522 524
e 522 525
e 522 526
e 523 524
e 523 525
e 523 526
e 524 525
e 524 526
e 524 527
e 524 528
e 524 529
e 525 526
e 525 527
e 525 528
e 525 529
e 526 527
e 526 528
e 526 529
e 527 528
e 527 529
e 527 530
e 527 531
e 527 532
e 528 529
e 528 530
e 528 531
e 528 532
e 529 530
e 529 531
e 529 532
e 530 531
e 530 532
e 530 533
e 530 534
e 530 535
e 531 532
e 531 533
e 531 534
e 531 535
e 532 533
e 532 534
e 532 535
e 533 534
e 533 535
e 533 536
e 533 537
e 533 538
e 534 535
e 534 536
e 534 537
e 534 538
e 535 536
e 535 537
e 535 538
e 536 537
e 536 538
e 536 539
e 536 540
e 536 541
e 537 538
e 537 539
e 537 540
e 537 541
e 538 539
e 538 540
e 538 541
e 539 540
e 539 541
e 539 542
e 539 543
e 539 544
e 540 541
e 540 542
e 540 543
e 540 544
e 541 542
e 541 543
e 541 544
e 542 543
e 542 544
e 542 545
e 542 546
e 542 547
e 543 544
e 543 545
e 543 546
e 543 547
e 544 545
e 544 546
e 544 547
e 545 546
e 545 547
e 545 548
e 545 549
e 545 550
e 546 547
e 546 548
e 546 549
e 546 550
e 547 548
e 547 549
e 547 550
e 548 549
e 548 550
e 548 551
e 548 552
e 548 553
e 549 550
e 549 551
e 549 552
e 549 553
e 550 551
e 550 552
e 550 553
e 551 552
e 551 553
e 551 554
e 551 555
e 551 556
e 552 553
e 552 554
e 552 555
e 552 556
e 553 554
e 553 555
e 553 556
e 554 555
e 554 556
e 554 557
e 554 558
e 554 559
e 555 556
e 555 557
e 555 558
e 555 559
e 556 557
e 556 558
e 556 559
e 557 558
e 557 559
e 557 560
e 557 561
e 557 562
e 558 559
e 558 560
e 558 561
e 558 562
e 559 560
e 559 561
e 559 562
e 560 561
e 560 562
e 560 563
e 560 564
e 560 565
e 561 562
e 561 563
e 561 564
e 561 565
e 562 563
e 562 564
e 562 565
e 563 564
e 563 565
e 563 566
e 563 567
e 563 568
e 564 565
e 564 566
e 564 567
e 564 568
e 565 566
e 565 567
e 565 568
e 566 567
e 566 568
e 566 569
e 566 570
e 566 571
e 567 568
e 567 569
e 567 570
e 567 571
e 568 569
e 568 570
e 568 571
e 569 570
e 569 571
e 569 572
e 569 573
e 569 574
e 570 571
e 570 572
e 570 573
e 570 574
e 571 572
e 571 573
e 571 574
e 572 573
e 572 574
e 572 575
e 572 576
e 572 577
e 573 574
e 573 575
e 573 576
e 573 577
e 574 575
e 574 576
e 574 577
e 575 576
e 575 577
e 575 578
e 575 579
e 575 580
e 576 577
e 576 578
e 576 579
e 576 580
e 577 578
e 577 579
e 577 580
e 578 579
e 578 580
e 578 581
e 578 582
e 578 583
e 579 580
e 579 581
e 579 582
e 579 583
e 580 581
e 580 582
e 580 583
e 581 582
e 581 583
e 581 584
e 581 585
e 581 586
e 582 583
e 582 584
e 582 585
e 582 586
e 583 584
e 583 585
e 583 586
e 584 585
e 584 586
e 584 587
e 584 588
e 584 589
e 585 586
e 585 587
e 585 588
e 585 589
e 586 587
e 586 588
e 586 589
e 587 588
e 587 589
e 587 590
e 587 591
e 587 592
e 588 589
e 588 590
e 588 591
e 588 592
e 589 590
e 589 591
e 589 592
e 590 591
e 590 592
e 590 593
e 590 594
e 590 595
e 591 592
e 591 593
e 591 594
e 591 595
e 592 593
e 592 594
e 592 595
e 593 594
e 593 595
e 593 596
e 593 597
e 593 598
e 594 595
e 594 596
e 594 597
e 594 598
e 595 596
e 595 597
e 595 598
e 596 597
e 596 598
e 596 599
e 596 600
e 596 601
e 597 598
e 597 599
e 597 600
e 597 601
e 598 599
e 598 600
e 598 601
e 599 600
e 599 601
e 599 602
e 599 603
e 599 604
e 600 601
e 600 602
e 600 603
e 600 604
e 601 602
e 601 603
e 601 604
e 602 603
e 602 604
e 602 605
e 602 606
e 602 607
e 603 604
e 603 605
e 603 606
e 603 607
e 604 605
e 604 606
e 604 607
e 605 606
e 605 607
e 605 608
e 605 609
e 605 610
e 606 607
e 606 608
e 606 609
e 606 610
e 607 608
e 607 609
e 607 610
e 608 609
e 608 610
e 608 611
e 608 612
e 608 613
e 609 610
e 609 611
e 609 612
e 609 613
e 610 611
e 610 612
e 610 613
e 611 612
e 611 613
e 611 614
e 611 615
e 611 616
e 612 613
e 612 614
e 612 615
e 612 616
e 613 614
e 613 615
e 613 616
e 614 615
e 614 616
e 614 617
e 614 618
e 614 619
e 615 616
e 615 617
e 615 618
e 615 619
e 616 617
e 616 618
e 616 619
e 617 618
e 617 619
e 617 620
e 617 621
e 617 622
e 618 619
e 618 620
e 618 621
e 618 622
e 619 620
e 619 621
e 619 622
e 620 621
e 620 622
e 620 623
e 620 624
e 620 625
e 621 622
e 621 623
e 621 624
e 621 625
e 622 623
e 622 624
e 622 625
e 623 624
e 623 625
e 623 626
e 623 627
e 623 628
e 624 625
e 624 626
e 624 627
e 624 628
e 625 626
e 625 627
e 625 628
e 626 627
e 626 628
e 626 629
e 626 630
e 626 631
e 627 628
e 627 629
e 627 630
e 627 631
e 628 629
e 628 630
e 628 631
e 629 630
e 629 631
e 629 632
e 629 633
e 629 634
e 630 631
e 630 632
e 630 633
e 630 634
e 631 632
e 631 633
e 631 634
e 632 633
e 632 634
e 632 635
e 632 636
e 632 637
e 633 634
e 633 635
e 633 636
e 633 637
e 634 635
e 634 636
e 634 637
e 635 636
e 635 637
e 635 638
e 635 639
e 635 640
e 636 637
e 636 638
e 636 639
e 636 640
e 637 638
e 637 639
e 637 640
e 638 639
e 638 640
e 638 641
e 638 642
e 638 643
e 639 640
e 639 641
e 639 642
e 639 643
e 640 641
e 640 642
e 640 643
e 641 642
e 641 643
e 641 644
e 641 645
e 641 646
e 642 643
e 642 644
e 642 645
e 642 646
e 643 644
e 643 645
e 643 646
e 644 645
e 644 646
e 644 647
e 644 648
e 644 649
e 645 646
e 645 647
e 645 648
e 645 649
e 646 647
e 646 648
e 646 649
e 647 648
e 647 649
e 647 650
e 647 651
e 647 652
e 648 649
e 648 650
e 648 651
e 648 652
e 649 650
e 649 651
e 649 652
e 650 651
e 650 652
e 650 653
e 650 654
e 650 655
e 651 652
e 651 653
e 651 654
e 651 655
e 652 653
e 652 654
e 652 655
e 653 654
e 653 655
e 653 656
e 653 657
e 653 658
e 654 655
e 654 656
e 654 657
e 654 658
e 655 656
e 655 657
e 655 658
e 656 657
e 656 658
e 656 659
e 656 660
e 656 661
e 657 658
e 657 659
e 657 660
e 657 661
e 658 659
e 658 660
e 658 661
e 659 660
e 659 661
e 659 662
e 659 663
e 659 664
e 660 661
e 660 662
e 660 663
e 660 664
e 661 662
e 661 663
e 661 664
e 662 663
e 662 664
e 662 665
e 662 666
e 662 667
e 663 664
e 663 665
e 663 666
e 663 667
e 664 665
e 664 666
e 664 667
e 665 666
e 665 667
e 665 668
e 665 669
e 665 670
e 666 667
e 666 668
e 666 669
e 666 670
e 667 668
e 667 669
e 667 670
e 668 669
e 668 670
e 668 671
e 668 672
e 668 673
e 669 670
e 669 671
e 669 672
e 669 673
e 670 671
e 670 672
e 670 673
e 671 672
e 671 673
e 671 674
e 671 675
e 671 676
e 672 673
e 672 674
e 672 675
e 672 676
e 673 674
e 673 675
e 673 676
e 674 675
e 674 676
e 674 677
e 674 678
e 674 679
e 675 676
e 675 677
e 675 678
e 675 679
e 676 677
e 676 678
e 676 679
e 677 678
e 677 679
e 677 680
e 677 681
e 677 682
e 678 679
e 678 680
e 678 681
e 678 682
e 679 680
e 679 681
e 679 682
e 680 681
e 680 682
e 680 683
e 680 684
e 680 685
e 681 682
e 681 683
e 681 684
e 681 685
e 682 683
e 682 684
e 682 685
e 683 684
e 683 685
e 683 686
e 683 687
e 683 688
e 684 685
e 684 686
e 684 687
e 684 688
e 685 686
e 685 687
e 685 688
e 686 687
e 686 688
e 686 689
e 686 690
e 686 691
e 687 688
e 687 689
e 687 690
e 687 691
e 688 689
e 688 690
e 688 691
e 689 690
e 689 691
e 689 692
e 689 693
e 689 694
e 690 691
e 690 692
e 690 693
e 690 694
e 691 692
e 691 693
e 691 694
e 692 693
e 692 694
e 692 695
e 692 696
e 692 697
e 693 694
e 693 695
e 693 696
e 693 697
e 694 695
e 694 696
e 694 697
e 695 696
e 695 697
e 695 698
e 695 699
e 695 700
e 696 697
e 696 698
e 696 699
e 696 700
e 697 698
e 697 699
e 697 700
e 698 699
e 698 700
e 698 701
e 698 702
e 698 703
e 699 700
e 699 701
e 699 702
e 699 703
e 700 701
e 700 702
e 700 703
e 701 702
e 701 703
e 701 704
e 701 705
e 701 706
e 702 703
e 702 704
e 702 705
e 702 706
e 703 704
e 703 705
e 703 706
e 704 705
e 704 706
e 704 707
e 704 708
e 704 709
e 705 706
e 705 707
e 705 708
e 705 709
e 706 707
e 706 708
e 706 709
e 707 708
e 707 709
e 707 710
e 707 711
e 707 712
e 708 709
e 708 710
e 708 711
e 708 712
e 709 710
e 709 711
e 709 712
e 710 711
e 710 712
e 710 713
e 710 714
e 710 715
e 711 712
e 711 713
e 711 714
e 711 715
e 712 713
e 712 714
e 712 715
e 713 714
e 713 715
e 713 716
e 713 717
e 713 718
e 714 715
e 714 716
e 714 717
e 714 718
e 715 716
e 715 717
e 715 718
e 716 717
e 716 718
e 716 719
e 716 720
e 716 721
e 717 718
e 717 719
e 717 720
e 717 721
e 718 719
e 718 720
e 718 721
e 719 720
e 719 721
e 719 722
e 719 723
e 719 724
e 719 788
e 719 790
e 720 721
e 720 722
e 720 723
e 720 724
e 720 789
e 721 722
e 721 723
e 721 724
e 721 788
e 721 790
e 722 723
e 722 724
e 722 725
e 722 726
e 722 727
e 723 724
e 723 725
e 723 726
e 723 727
e 724 725
e 724 726
e 724 727
e 725 726
e 725 727
e 726 727
e 728 730
e 728 731
e 728 733
e 729 732
e 730 731
e 730 733
e 731 733
e 731 734
e 731 736
e 732 735
e 733 734
e 733 736
e 734 736
e 734 737
e 734 739
e 735 738
e 736 737
e 736 739
e 737 739
e 737 740
e 737 742
e 738 741
e 739 740
e 739 742
e 740 742
e 740 743
e 740 745
e 741 744
e 742 743
e 742 745
e 743 745
e 743 746
e 743 748
e 744 747
e 745 746
e 745 748
e 746 749
e 746 751
e 747 750
e 748 749
e 748 751
e 749 751
e 749 752
e 749 754
e 750 753
e 751 752
e 751 754
e 752 754
e 752 755
e 752 757
e 753 756
e 754 755
e 754 757
e 755 757
e 755 758
e 755 760
e 756 759
e 757 758
e 757 760
e 758 760
e 758 761
e 758 763
e 759 762
e 760 761
e 760 763
e 761 763
e 761 764
e 761 766
e 762 765
e 763 764
e 763 766
e 764 766
e 764 767
e 764 769
e 765 768
e 766 767
e 766 769
e 767 769
e 767 770
e 767 772
e 768 771
e 769 770
e 769 772
e 770 772
e 773 775
e 773 776
e 773 778
e 774 777
e 775 776
e 775 778
e 776 778
e 776 779
e 776 781
e 777 780
e 778 779
e 778 781
e 779 781
e 779 782
e 779 784
e 780 783
e 781 782
e 781 784
e 782 784
e 782 785
e 782 787
e 783 786
e 784 785
e 784 787
e 785 787
e 785 788
e 785 790
e 786 789
e 787 788
e 787 790
e 788 790
e 788 791
e 788 793
e 789 792
e 790 791
e 790 793
e 791 794
e 791 796
e 792 795
e 793 794
e 793 796
e 794 796
e 794 797
e 794 799
e 795 798
e 796 797
e 796 799
e 797 799
e 797 800
e 797 802
e 798 801
e 799 800
e 799 802
e 800 802
e 800 803
e 800 805
e 801 804
e 802 803
e 802 805
e 803 805
e 803 806
e 803 808
e 804 807
e 805 806
e 805 808
e 806 808
e 806 809
e 806 811
e 807 810
e 808 809
e 808 811
e 809 811
e 809 812
e 809 814
e 810 813
e 811 812
e 811 814
e 812 814
e 812 815
e 812 817
e 813 816
e 814 815
e 814 817
e 815 817
